32
0       0       0
1       0       33
2       0       33
3       0       31
4       1       34
5       2       35
6       2       42
7       3       44
8       8       48
9       1       45
10      1       32
11      4       37
12      3       43
13      3       37
14      3       36
15      2       47
16      13      46
17      9       40
18      13      44
19      22      53
20      8       41
21      23      54
22      15      47
23      9       41
24      20      53
25      30      57
26      16      45
27      23      52
28      23      56
29      33      58
30      13      62
31      43      65
